p wcnf 192 288 289 
1 123 5 0 
1 65 157 0 
1 -121 -146 0 
1 -99 -60 0 
1 5 111 0 
1 103 -186 0 
1 -157 -138 0 
1 22 -79 0 
1 158 105 0 
1 34 -149 0 
1 34 53 0 
1 -68 -4 0 
1 154 -148 0 
1 146 -81 0 
1 -189 -124 0 
1 -74 22 0 
1 -138 -56 0 
1 -55 -79 0 
1 111 -68 0 
1 169 184 0 
1 149 -189 0 
1 76 -32 0 
1 -72 -71 0 
1 26 -144 0 
1 63 -52 0 
1 115 99 0 
1 152 -94 0 
1 -80 189 0 
1 -127 -13 0 
1 -192 -132 0 
1 142 -71 0 
1 84 -135 0 
1 20 -93 0 
1 -157 75 0 
1 165 86 0 
1 142 123 0 
1 190 135 0 
1 186 -171 0 
1 -66 -24 0 
1 129 141 0 
1 -173 54 0 
1 -19 68 0 
1 -135 15 0 
1 -113 -183 0 
1 -4 155 0 
1 -45 -132 0 
1 66 56 0 
1 169 -43 0 
1 -97 153 0 
1 157 -126 0 
1 -144 105 0 
1 -34 25 0 
1 -83 73 0 
1 -192 -40 0 
1 -127 69 0 
1 44 -109 0 
1 22 132 0 
1 165 180 0 
1 130 37 0 
1 -85 -83 0 
1 -119 -111 0 
1 9 61 0 
1 -92 146 0 
1 79 -110 0 
1 66 61 0 
1 127 132 0 
1 -19 40 0 
1 55 -187 0 
1 39 -83 0 
1 -53 33 0 
1 120 -32 0 
1 -4 157 0 
1 93 77 0 
1 -174 3 0 
1 -85 -52 0 
1 41 57 0 
1 168 -126 0 
1 180 -155 0 
1 -132 60 0 
1 84 -151 0 
1 -179 -66 0 
1 -160 -188 0 
1 -26 -17 0 
1 109 146 0 
1 16 -103 0 
1 -154 38 0 
1 -189 -26 0 
1 189 166 0 
1 -187 52 0 
1 -3 100 0 
1 -76 -186 0 
1 15 169 0 
1 48 -95 0 
1 -88 -116 0 
1 -45 71 0 
1 -50 29 0 
1 57 95 0 
1 -98 -180 0 
1 -138 -88 0 
1 47 -152 0 
1 146 59 0 
1 -153 -124 0 
1 -40 -68 0 
1 35 183 0 
1 29 180 0 
1 -188 174 0 
1 49 7 0 
1 -124 187 0 
1 84 -177 0 
1 -13 -15 0 
1 105 -125 0 
1 -163 137 0 
1 93 187 0 
1 56 -99 0 
1 163 28 0 
1 -61 16 0 
1 -128 1 0 
1 61 158 0 
1 -109 -72 0 
1 -90 99 0 
1 37 -85 0 
1 -124 -154 0 
1 -101 -188 0 
1 -125 -59 0 
1 -59 -182 0 
1 179 -119 0 
1 94 -65 0 
1 117 -143 0 
1 124 126 0 
1 -48 -165 0 
1 147 131 0 
1 -155 -124 0 
1 -44 167 0 
1 -110 104 0 
1 -6 -142 0 
1 -188 -107 0 
1 -170 -122 0 
1 -191 120 0 
1 -92 63 0 
1 -28 -22 0 
1 -70 -37 0 
1 167 -177 0 
1 -79 140 0 
1 -101 -148 0 
1 -63 -90 0 
1 157 164 0 
1 160 28 0 
1 -97 133 0 
1 110 -144 0 
1 157 -22 0 
1 -24 -19 0 
1 123 -169 0 
1 -55 -111 0 
1 183 47 0 
1 -176 121 0 
1 -67 -25 0 
1 2 -123 0 
1 -21 66 0 
1 36 145 0 
1 175 -165 0 
1 -74 -85 0 
1 -79 143 0 
1 -100 -115 0 
1 115 11 0 
1 -17 -141 0 
1 24 -175 0 
1 78 157 0 
1 -60 123 0 
1 5 -14 0 
1 -48 -84 0 
1 58 -75 0 
1 -174 -3 0 
1 154 -4 0 
1 -122 -35 0 
1 -39 192 0 
1 110 -59 0 
1 38 -25 0 
1 120 30 0 
1 136 99 0 
1 -119 108 0 
1 78 -185 0 
1 2 -19 0 
1 -186 -121 0 
1 -192 138 0 
1 -105 111 0 
1 -167 -109 0 
1 80 124 0 
1 -107 -22 0 
1 84 94 0 
1 -83 157 0 
1 143 -85 0 
1 1 -18 0 
1 -17 -95 0 
1 -8 51 0 
1 -50 24 0 
1 -86 77 0 
1 77 158 0 
1 -6 -39 0 
1 89 37 0 
1 -74 94 0 
1 54 -62 0 
1 -96 56 0 
1 6 -50 0 
1 138 -135 0 
1 147 -106 0 
1 -144 175 0 
1 -72 -82 0 
1 19 -100 0 
1 -73 64 0 
1 -148 -66 0 
1 -128 189 0 
1 28 115 0 
1 92 146 0 
1 -136 122 0 
1 -126 -187 0 
1 2 45 0 
1 -120 -147 0 
1 -120 -68 0 
1 -105 -88 0 
1 23 -169 0 
1 -136 171 0 
1 -57 103 0 
1 2 166 0 
1 53 104 0 
1 90 84 0 
1 -191 131 0 
1 -59 101 0 
1 -86 71 0 
1 -24 -141 0 
1 -85 -104 0 
1 123 177 0 
1 -30 -184 0 
1 75 135 0 
1 91 -181 0 
1 165 113 0 
1 77 88 0 
1 -81 -161 0 
1 48 -180 0 
1 -188 -158 0 
1 -152 -102 0 
1 186 136 0 
1 -117 14 0 
1 -97 32 0 
1 -109 129 0 
1 -191 -69 0 
1 -175 -84 0 
1 99 -27 0 
1 -182 80 0 
1 149 -110 0 
1 -154 69 0 
1 168 -62 0 
1 39 -126 0 
1 -154 -185 0 
1 -79 125 0 
1 -34 -178 0 
1 79 44 0 
1 -2 92 0 
1 -33 83 0 
1 -186 -177 0 
1 -175 -83 0 
1 29 -127 0 
1 -10 -90 0 
1 -131 -91 0 
1 146 -129 0 
1 67 98 0 
1 59 -30 0 
1 -27 -175 0 
1 60 4 0 
1 85 137 0 
1 -92 -183 0 
1 -96 99 0 
1 -94 136 0 
1 154 158 0 
1 -100 23 0 
1 100 -142 0 
1 -167 -10 0 
1 188 155 0 
1 43 -93 0 
1 -176 -144 0 
1 -141 -102 0 
1 -174 -40 0 
1 -58 -87 0 
1 -31 -158 0 
1 -177 -7 0 
1 -18 13 0 
1 93 16 0 
1 53 -109 0 
1 -189 -120 0 
